\ Model Ore Mixing Problem
\ LP format - for model browsing. Use MPS format to capture full model detail.
Minimize
  316.3555836760519 a_max_00 + 240.6159769008662 a_max_01
   + 719.9424046076314 a_max_02 + 244.9179524859172 a_max_03
   + 1.2658227848101265e+06 a_max_10 + 3.0303030303030293e+06 a_max_11
   + 980392.1568627451 a_max_12 + 2.3255813953488376e+06 a_max_13
   + 1.1111111111111108e+06 a_max_20 + 232558.1395348837 a_max_21
   + 217391.3043478261 a_max_22 + 208333.3333333333 a_max_23
   + 400000 a_max_30 + 263157.8947368421 a_max_31
   + 322580.6451612903 a_max_32 + 1.1111111111111108e+06 a_max_33
   + 109890.1098901099 a_max_40 + 1.25e+06 a_max_41
   + 163934.4262295082 a_max_42 + 181818.1818181818 a_max_43
   + 126582.2784810126 a_max_50 + 185185.1851851852 a_max_51
   + 85470.08547008548 a_max_52 + 909090.9090909064 a_max_53
   + 746.8259895444361 a_min_00 + 2906.976744186049 a_min_01
   + 321.4400514304082 a_min_02 + 2398.081534772181 a_min_03
   + 1.4084507042253523e+06 a_min_10 + 854700.8547008547 a_min_11
   + 2.0833333333333335e+06 a_min_12 + 934579.4392523364 a_min_13
   + 243902.4390243902 a_min_20 + 1.4285714285714284e+06 a_min_21
   + 2.5e+06 a_min_22 + 5e+06 a_min_23 + 400000 a_min_30
   + 833333.3333333334 a_min_31 + 526315.7894736842 a_min_32
   + 243902.4390243902 a_min_33 + 1.111111111111111e+06 a_min_40
   + 108695.652173913 a_min_41 + 256410.2564102564 a_min_42
   + 222222.2222222222 a_min_43 + 140845.0704225352 a_min_50
   + 104166.6666666667 a_min_51 + 303030.3030303029 a_min_52
   + 71942.44604316549 a_min_53 + 0.0746825989544436 b_min_00
   + 0.2906976744186048 b_min_01 + 0.0719942404607631 b_min_02
   + 0.2398081534772181 b_min_03 + 1.408450704225352 b_min_10
   + 3.03030303030303 b_min_11 + 2.083333333333333 b_min_12
   + 2.325581395348837 b_min_13 + 11.11111111111111 b_min_20
   + 14.28571428571428 b_min_21 + 25 b_min_22 + 50 b_min_23 + 4 b_min_30
   + 8.333333333333334 b_min_31 + 5.263157894736842 b_min_32
   + 11.11111111111111 b_min_33 + 11.11111111111111 b_min_40
   + 12.5 b_min_41 + 2.564102564102564 b_min_42
   + 2.222222222222222 b_min_43 + 1.408450704225352 b_min_50
   + 1.851851851851852 b_min_51 + 3.03030303030303 b_min_52
   + 9.090909090909065 b_min_53 + 0.0746825989544436 b_max_00
   + 0.2906976744186048 b_max_01 + 0.0719942404607631 b_max_02
   + 0.2398081534772181 b_max_03 + 1.408450704225352 b_max_10
   + 3.03030303030303 b_max_11 + 2.083333333333333 b_max_12
   + 2.325581395348837 b_max_13 + 11.11111111111111 b_max_20
   + 14.28571428571428 b_max_21 + 25 b_max_22 + 50 b_max_23 + 4 b_max_30
   + 8.333333333333334 b_max_31 + 5.263157894736842 b_max_32
   + 11.11111111111111 b_max_33 + 11.11111111111111 b_max_40
   + 12.5 b_max_41 + 2.564102564102564 b_max_42
   + 2.222222222222222 b_max_43 + 1.408450704225352 b_max_50
   + 1.851851851851852 b_max_51 + 3.03030303030303 b_max_52
   + 9.090909090909065 b_max_53
Subject To
 input_weight_constr_0: y_00 + y_01 + y_02 + y_03 + y_04 + y_05 + y_06
   + y_07 <= 75.4
 input_weight_constr_1: y_10 + y_11 + y_12 + y_13 + y_14 + y_15 + y_16
   + y_17 <= 75.4
 capacity_constr_0: y_00 + y_10 <= 48.1
 weight_constr_00: x_00 + x_01 + x_02 + x_03 - y_00 <= 1772.1
 weight_constr_01: x_00 + x_01 + x_02 + x_03 - y_10 <= 1772.1
 capacity_constr_1: y_01 + y_11 <= 225.3
 weight_constr_10: x_10 + x_11 + x_12 + x_13 - y_01 <= 1564.3
 weight_constr_11: x_10 + x_11 + x_12 + x_13 - y_11 <= 1564.3
 capacity_constr_2: y_02 + y_12 <= 136.6
 weight_constr_20: x_20 + x_21 + x_22 + x_23 - y_02 <= 1238.1
 weight_constr_21: x_20 + x_21 + x_22 + x_23 - y_12 <= 1238.1
 capacity_constr_3: y_03 + y_13 <= 87.4
 weight_constr_30: x_30 + x_31 + x_32 + x_33 - y_03 <= 1765.2
 weight_constr_31: x_30 + x_31 + x_32 + x_33 - y_13 <= 1765.2
 capacity_constr_4: y_04 + y_14 <= 295.5
 weight_constr_40: x_40 + x_41 + x_42 + x_43 - y_04 <= 1509.6
 weight_constr_41: x_40 + x_41 + x_42 + x_43 - y_14 <= 1509.6
 capacity_constr_5: y_05 + y_15 <= 195.3
 weight_constr_50: x_50 + x_51 + x_52 + x_53 - y_05 <= 1401.4
 weight_constr_51: x_50 + x_51 + x_52 + x_53 - y_15 <= 1401.4
 capacity_constr_6: y_06 + y_16 <= 11.7
 weight_constr_60: x_60 + x_61 + x_62 + x_63 - y_06 <= 1495.4
 weight_constr_61: x_60 + x_61 + x_62 + x_63 - y_16 <= 1495.4
 capacity_constr_7: y_07 + y_17 <= 280.7
 weight_constr_70: x_70 + x_71 + x_72 + x_73 - y_07 <= 1500
 weight_constr_71: x_70 + x_71 + x_72 + x_73 - y_17 <= 1500
 demand_constr_0: x_00 + x_10 + x_20 + x_30 + x_40 + x_50 + x_60 + x_70
   = 1434.8
 min_quality_constr_00: 38.83 x_00 - 6.95 x_10 - 8.53 x_20 + 40.84 x_30
   - 1.26 x_40 + 22.86 x_50 + 38.53 x_60 + 21.15 x_70 + 1434.8 a_min_00
   >= -0
 max_quality_constr_00: - 6.17 x_00 - 51.95 x_10 - 53.53 x_20 - 4.16 x_30
   - 46.26 x_40 - 22.14 x_50 - 6.47 x_60 - 23.85 x_70 - 1434.8 a_max_00
   <= -0
 goal_quality_constr_00: 25.44 x_00 - 20.34 x_10 - 21.92 x_20 + 27.45 x_30
   - 14.65 x_40 + 9.47 x_50 + 25.14 x_60 + 7.76 x_70 + b_min_00 - b_max_00
   = -0
 min_quality_constr_10: 0.95 x_00 + 0.37 x_10 + 0.59 x_20 + 1.38 x_30
   + 0.47 x_40 + 0.2 x_50 + 0.58 x_60 + 1.53 x_70 + 1434.8 a_min_10 >= -0
 max_quality_constr_10: - 0.55 x_00 - 1.13 x_10 - 0.91 x_20 - 0.12 x_30
   - 1.03 x_40 - 1.3 x_50 - 0.92 x_60 + 0.03 x_70 - 1434.8 a_max_10 <= -0
 goal_quality_constr_10: 0.24 x_00 - 0.34 x_10 - 0.12 x_20 + 0.67 x_30
   - 0.24 x_40 - 0.51 x_50 - 0.13 x_60 + 0.82 x_70 + b_min_10 - b_max_10
   = -0
 min_quality_constr_20: 3.71 x_00 + 5.73 x_10 + 3.92 x_20 + 4.85 x_30
   + 2.47 x_40 + 0.26 x_50 + 3.35 x_60 + 3.9 x_70 + 1434.8 a_min_20 >= -0
 max_quality_constr_20: 3.21 x_00 + 5.23 x_10 + 3.42 x_20 + 4.35 x_30
   + 1.97 x_40 - 0.24 x_50 + 2.85 x_60 + 3.4 x_70 - 1434.8 a_max_20 <= -0
 goal_quality_constr_20: 3.3 x_00 + 5.32 x_10 + 3.51 x_20 + 4.44 x_30
   + 2.06 x_40 - 0.15 x_50 + 2.94 x_60 + 3.49 x_70 + b_min_20 - b_max_20
   = -0
 min_quality_constr_30: 2.54 x_00 + 3.52 x_10 + 4.11 x_20 + 4.9 x_30
   + 3.06 x_40 + 4.29 x_50 + 2.25 x_60 + 0.14 x_70 + 1434.8 a_min_30 >= -0
 max_quality_constr_30: 2.04 x_00 + 3.02 x_10 + 3.61 x_20 + 4.4 x_30
   + 2.56 x_40 + 3.79 x_50 + 1.75 x_60 - 0.36 x_70 - 1434.8 a_max_30 <= -0
 goal_quality_constr_30: 2.29 x_00 + 3.27 x_10 + 3.86 x_20 + 4.65 x_30
   + 2.81 x_40 + 4.04 x_50 + 2 x_60 - 0.11 x_70 + b_min_30 - b_max_30 = -0
 min_quality_constr_40: 0.67 x_00 + 0.73 x_10 + 0.07 x_20 + 0.49 x_30
   + 0.68 x_40 + 1.17 x_50 + 0.21 x_60 + 0.26 x_70 + 1434.8 a_min_40 >= -0
 max_quality_constr_40: - 0.33 x_00 - 0.27 x_10 - 0.93 x_20 - 0.51 x_30
   - 0.32 x_40 + 0.17 x_50 - 0.79 x_60 - 0.74 x_70 - 1434.8 a_max_40 <= -0
 goal_quality_constr_40: 0.58 x_00 + 0.64 x_10 - 0.02 x_20 + 0.4 x_30
   + 0.59 x_40 + 1.08 x_50 + 0.12 x_60 + 0.17 x_70 + b_min_40 - b_max_40
   = -0
 min_quality_constr_50: - 0.3 x_00 - 0.08 x_10 + 2.24 x_20 + 2.17 x_30
   + 1.59 x_40 + 0.01 x_50 - 0.49 x_60 + 0.05 x_70 + 1434.8 a_min_50 >= -0
 max_quality_constr_50: - 1.8 x_00 - 1.58 x_10 + 0.74 x_20 + 0.67 x_30
   + 0.09 x_40 - 1.49 x_50 - 1.99 x_60 - 1.45 x_70 - 1434.8 a_max_50 <= -0
 goal_quality_constr_50: - 1.01 x_00 - 0.79 x_10 + 1.53 x_20 + 1.46 x_30
   + 0.88 x_40 - 0.7 x_50 - 1.2 x_60 - 0.66 x_70 + b_min_50 - b_max_50
   = -0
 demand_constr_1: x_01 + x_11 + x_21 + x_31 + x_41 + x_51 + x_61 + x_71
   = 1598.2
 min_quality_constr_01: 38.83 x_01 - 6.95 x_11 - 8.53 x_21 + 40.84 x_31
   - 1.26 x_41 + 22.86 x_51 + 38.53 x_61 + 21.15 x_71 + 1598.2 a_min_01
   >= -0
 max_quality_constr_01: - 6.17 x_01 - 51.95 x_11 - 53.53 x_21 - 4.16 x_31
   - 46.26 x_41 - 22.14 x_51 - 6.47 x_61 - 23.85 x_71 - 1598.2 a_max_01
   <= -0
 goal_quality_constr_01: 35.39 x_01 - 10.39 x_11 - 11.97 x_21 + 37.4 x_31
   - 4.7 x_41 + 19.42 x_51 + 35.09 x_61 + 17.71 x_71 + b_min_01 - b_max_01
   = -0
 min_quality_constr_11: 0.95 x_01 + 0.37 x_11 + 0.59 x_21 + 1.38 x_31
   + 0.47 x_41 + 0.2 x_51 + 0.58 x_61 + 1.53 x_71 + 1598.2 a_min_11 >= -0
 max_quality_constr_11: - 0.55 x_01 - 1.13 x_11 - 0.91 x_21 - 0.12 x_31
   - 1.03 x_41 - 1.3 x_51 - 0.92 x_61 + 0.03 x_71 - 1598.2 a_max_11 <= -0
 goal_quality_constr_11: - 0.22 x_01 - 0.8 x_11 - 0.58 x_21 + 0.21 x_31
   - 0.7 x_41 - 0.97 x_51 - 0.59 x_61 + 0.36 x_71 + b_min_11 - b_max_11
   = -0
 min_quality_constr_21: 3.71 x_01 + 5.73 x_11 + 3.92 x_21 + 4.85 x_31
   + 2.47 x_41 + 0.26 x_51 + 3.35 x_61 + 3.9 x_71 + 1598.2 a_min_21 >= -0
 max_quality_constr_21: 3.21 x_01 + 5.23 x_11 + 3.42 x_21 + 4.35 x_31
   + 1.97 x_41 - 0.24 x_51 + 2.85 x_61 + 3.4 x_71 - 1598.2 a_max_21 <= -0
 goal_quality_constr_21: 3.64 x_01 + 5.66 x_11 + 3.85 x_21 + 4.78 x_31
   + 2.4 x_41 + 0.19 x_51 + 3.28 x_61 + 3.83 x_71 + b_min_21 - b_max_21
   = -0
 min_quality_constr_31: 2.54 x_01 + 3.52 x_11 + 4.11 x_21 + 4.9 x_31
   + 3.06 x_41 + 4.29 x_51 + 2.25 x_61 + 0.14 x_71 + 1598.2 a_min_31 >= -0
 max_quality_constr_31: 2.04 x_01 + 3.02 x_11 + 3.61 x_21 + 4.4 x_31
   + 2.56 x_41 + 3.79 x_51 + 1.75 x_61 - 0.36 x_71 - 1598.2 a_max_31 <= -0
 goal_quality_constr_31: 2.42 x_01 + 3.4 x_11 + 3.99 x_21 + 4.78 x_31
   + 2.94 x_41 + 4.17 x_51 + 2.13 x_61 + 0.02 x_71 + b_min_31 - b_max_31
   = -0
 min_quality_constr_41: 0.67 x_01 + 0.73 x_11 + 0.07 x_21 + 0.49 x_31
   + 0.68 x_41 + 1.17 x_51 + 0.21 x_61 + 0.26 x_71 + 1598.2 a_min_41 >= -0
 max_quality_constr_41: - 0.33 x_01 - 0.27 x_11 - 0.93 x_21 - 0.51 x_31
   - 0.32 x_41 + 0.17 x_51 - 0.79 x_61 - 0.74 x_71 - 1598.2 a_max_41 <= -0
 goal_quality_constr_41: - 0.25 x_01 - 0.19 x_11 - 0.85 x_21 - 0.43 x_31
   - 0.24 x_41 + 0.25 x_51 - 0.71 x_61 - 0.66 x_71 + b_min_41 - b_max_41
   = -0
 min_quality_constr_51: - 0.3 x_01 - 0.08 x_11 + 2.24 x_21 + 2.17 x_31
   + 1.59 x_41 + 0.01 x_51 - 0.49 x_61 + 0.05 x_71 + 1598.2 a_min_51 >= -0
 max_quality_constr_51: - 1.8 x_01 - 1.58 x_11 + 0.74 x_21 + 0.67 x_31
   + 0.09 x_41 - 1.49 x_51 - 1.99 x_61 - 1.45 x_71 - 1598.2 a_max_51 <= -0
 goal_quality_constr_51: - 1.26 x_01 - 1.04 x_11 + 1.28 x_21 + 1.21 x_31
   + 0.63 x_41 - 0.95 x_51 - 1.45 x_61 - 0.91 x_71 + b_min_51 - b_max_51
   = -0
 demand_constr_2: x_02 + x_12 + x_22 + x_32 + x_42 + x_52 + x_62 + x_72
   = 1567.8
 min_quality_constr_02: 38.83 x_02 - 6.95 x_12 - 8.53 x_22 + 40.84 x_32
   - 1.26 x_42 + 22.86 x_52 + 38.53 x_62 + 21.15 x_72 + 1567.8 a_min_02
   >= -0
 max_quality_constr_02: - 6.17 x_02 - 51.95 x_12 - 53.53 x_22 - 4.16 x_32
   - 46.26 x_42 - 22.14 x_52 - 6.47 x_62 - 23.85 x_72 - 1567.8 a_max_02
   <= -0
 goal_quality_constr_02: 7.72 x_02 - 38.06 x_12 - 39.64 x_22 + 9.73 x_32
   - 32.37 x_42 - 8.25 x_52 + 7.42 x_62 - 9.96 x_72 + b_min_02 - b_max_02
   = -0
 min_quality_constr_12: 0.95 x_02 + 0.37 x_12 + 0.59 x_22 + 1.38 x_32
   + 0.47 x_42 + 0.2 x_52 + 0.58 x_62 + 1.53 x_72 + 1567.8 a_min_12 >= -0
 max_quality_constr_12: - 0.55 x_02 - 1.13 x_12 - 0.91 x_22 - 0.12 x_32
   - 1.03 x_42 - 1.3 x_52 - 0.92 x_62 + 0.03 x_72 - 1567.8 a_max_12 <= -0
 goal_quality_constr_12: 0.47 x_02 - 0.11 x_12 + 0.11 x_22 + 0.9 x_32
   - 0.01 x_42 - 0.28 x_52 + 0.1 x_62 + 1.05 x_72 + b_min_12 - b_max_12
   = -0
 min_quality_constr_22: 3.71 x_02 + 5.73 x_12 + 3.92 x_22 + 4.85 x_32
   + 2.47 x_42 + 0.26 x_52 + 3.35 x_62 + 3.9 x_72 + 1567.8 a_min_22 >= -0
 max_quality_constr_22: 3.21 x_02 + 5.23 x_12 + 3.42 x_22 + 4.35 x_32
   + 1.97 x_42 - 0.24 x_52 + 2.85 x_62 + 3.4 x_72 - 1567.8 a_max_22 <= -0
 goal_quality_constr_22: 3.67 x_02 + 5.69 x_12 + 3.88 x_22 + 4.81 x_32
   + 2.43 x_42 + 0.22 x_52 + 3.31 x_62 + 3.86 x_72 + b_min_22 - b_max_22
   = -0
 min_quality_constr_32: 2.54 x_02 + 3.52 x_12 + 4.11 x_22 + 4.9 x_32
   + 3.06 x_42 + 4.29 x_52 + 2.25 x_62 + 0.14 x_72 + 1567.8 a_min_32 >= -0
 max_quality_constr_32: 2.04 x_02 + 3.02 x_12 + 3.61 x_22 + 4.4 x_32
   + 2.56 x_42 + 3.79 x_52 + 1.75 x_62 - 0.36 x_72 - 1567.8 a_max_32 <= -0
 goal_quality_constr_32: 2.35 x_02 + 3.33 x_12 + 3.92 x_22 + 4.71 x_32
   + 2.87 x_42 + 4.1 x_52 + 2.06 x_62 - 0.05 x_72 + b_min_32 - b_max_32
   = -0
 min_quality_constr_42: 0.67 x_02 + 0.73 x_12 + 0.07 x_22 + 0.49 x_32
   + 0.68 x_42 + 1.17 x_52 + 0.21 x_62 + 0.26 x_72 + 1567.8 a_min_42 >= -0
 max_quality_constr_42: - 0.33 x_02 - 0.27 x_12 - 0.93 x_22 - 0.51 x_32
   - 0.32 x_42 + 0.17 x_52 - 0.79 x_62 - 0.74 x_72 - 1567.8 a_max_42 <= -0
 goal_quality_constr_42: 0.28 x_02 + 0.34 x_12 - 0.32 x_22 + 0.1 x_32
   + 0.29 x_42 + 0.78 x_52 - 0.18 x_62 - 0.13 x_72 + b_min_42 - b_max_42
   = -0
 min_quality_constr_52: - 0.3 x_02 - 0.08 x_12 + 2.24 x_22 + 2.17 x_32
   + 1.59 x_42 + 0.01 x_52 - 0.49 x_62 + 0.05 x_72 + 1567.8 a_min_52 >= -0
 max_quality_constr_52: - 1.8 x_02 - 1.58 x_12 + 0.74 x_22 + 0.67 x_32
   + 0.09 x_42 - 1.49 x_52 - 1.99 x_62 - 1.45 x_72 - 1567.8 a_max_52 <= -0
 goal_quality_constr_52: - 0.63 x_02 - 0.41 x_12 + 1.91 x_22 + 1.84 x_32
   + 1.26 x_42 - 0.32 x_52 - 0.82 x_62 - 0.28 x_72 + b_min_52 - b_max_52
   = -0
 demand_constr_3: x_03 + x_13 + x_23 + x_33 + x_43 + x_53 + x_63 + x_73
   = 1380.7
 min_quality_constr_03: 38.83 x_03 - 6.95 x_13 - 8.53 x_23 + 40.84 x_33
   - 1.26 x_43 + 22.86 x_53 + 38.53 x_63 + 21.15 x_73 + 1380.7 a_min_03
   >= -0
 max_quality_constr_03: - 6.17 x_03 - 51.95 x_13 - 53.53 x_23 - 4.16 x_33
   - 46.26 x_43 - 22.14 x_53 - 6.47 x_63 - 23.85 x_73 - 1380.7 a_max_03
   <= -0
 goal_quality_constr_03: 34.66 x_03 - 11.12 x_13 - 12.7 x_23 + 36.67 x_33
   - 5.43 x_43 + 18.69 x_53 + 34.36 x_63 + 16.98 x_73 + b_min_03 - b_max_03
   = -0
 min_quality_constr_13: 0.95 x_03 + 0.37 x_13 + 0.59 x_23 + 1.38 x_33
   + 0.47 x_43 + 0.2 x_53 + 0.58 x_63 + 1.53 x_73 + 1380.7 a_min_13 >= -0
 max_quality_constr_13: - 0.55 x_03 - 1.13 x_13 - 0.91 x_23 - 0.12 x_33
   - 1.03 x_43 - 1.3 x_53 - 0.92 x_63 + 0.03 x_73 - 1380.7 a_max_13 <= -0
 goal_quality_constr_13: - 0.12 x_03 - 0.7 x_13 - 0.48 x_23 + 0.31 x_33
   - 0.6 x_43 - 0.87 x_53 - 0.49 x_63 + 0.46 x_73 + b_min_13 - b_max_13
   = -0
 min_quality_constr_23: 3.71 x_03 + 5.73 x_13 + 3.92 x_23 + 4.85 x_33
   + 2.47 x_43 + 0.26 x_53 + 3.35 x_63 + 3.9 x_73 + 1380.7 a_min_23 >= -0
 max_quality_constr_23: 3.21 x_03 + 5.23 x_13 + 3.42 x_23 + 4.35 x_33
   + 1.97 x_43 - 0.24 x_53 + 2.85 x_63 + 3.4 x_73 - 1380.7 a_max_23 <= -0
 goal_quality_constr_23: 3.69 x_03 + 5.71 x_13 + 3.9 x_23 + 4.83 x_33
   + 2.45 x_43 + 0.24 x_53 + 3.33 x_63 + 3.88 x_73 + b_min_23 - b_max_23
   = -0
 min_quality_constr_33: 2.54 x_03 + 3.52 x_13 + 4.11 x_23 + 4.9 x_33
   + 3.06 x_43 + 4.29 x_53 + 2.25 x_63 + 0.14 x_73 + 1380.7 a_min_33 >= -0
 max_quality_constr_33: 2.04 x_03 + 3.02 x_13 + 3.61 x_23 + 4.4 x_33
   + 2.56 x_43 + 3.79 x_53 + 1.75 x_63 - 0.36 x_73 - 1380.7 a_max_33 <= -0
 goal_quality_constr_33: 2.13 x_03 + 3.11 x_13 + 3.7 x_23 + 4.49 x_33
   + 2.65 x_43 + 3.88 x_53 + 1.84 x_63 - 0.27 x_73 + b_min_33 - b_max_33
   = -0
 min_quality_constr_43: 0.67 x_03 + 0.73 x_13 + 0.07 x_23 + 0.49 x_33
   + 0.68 x_43 + 1.17 x_53 + 0.21 x_63 + 0.26 x_73 + 1380.7 a_min_43 >= -0
 max_quality_constr_43: - 0.33 x_03 - 0.27 x_13 - 0.93 x_23 - 0.51 x_33
   - 0.32 x_43 + 0.17 x_53 - 0.79 x_63 - 0.74 x_73 - 1380.7 a_max_43 <= -0
 goal_quality_constr_43: 0.22 x_03 + 0.28 x_13 - 0.38 x_23 + 0.04 x_33
   + 0.23 x_43 + 0.72 x_53 - 0.24 x_63 - 0.19 x_73 + b_min_43 - b_max_43
   = -0
 min_quality_constr_53: - 0.3 x_03 - 0.08 x_13 + 2.24 x_23 + 2.17 x_33
   + 1.59 x_43 + 0.01 x_53 - 0.49 x_63 + 0.05 x_73 + 1380.7 a_min_53 >= -0
 max_quality_constr_53: - 1.8 x_03 - 1.58 x_13 + 0.74 x_23 + 0.67 x_33
   + 0.09 x_43 - 1.49 x_53 - 1.99 x_63 - 1.45 x_73 - 1380.7 a_max_53 <= -0
 goal_quality_constr_53: - 1.69 x_03 - 1.47 x_13 + 0.85 x_23 + 0.78 x_33
   + 0.2 x_43 - 1.38 x_53 - 1.88 x_63 - 1.34 x_73 + b_min_53 - b_max_53
   = -0
Bounds
End
